15 19 23 23 24 28 11 21 24 30 13 24 19 10 24 10 17 18 10 17 29 29 13 6 2 19 1 28 20 27 27 16 2 4 22 16 5 25 22 29 28 24 23 15 14 28 1 20 28 10 4 12 26 5 6 6 15 11 8 5 13 27 9 3 2 3 30 12 14 8 6 12 13 22 10 29 22 29 5 27 9 24 26 22 19 9 2 9 12 16 17 3 7 6 29 28 4 26 29 8 22 8 2 3 30 8 15 20 10 5 28 12 23 20 4 19 15 20 16 21 10 20 2 6 12 13 22 1 3 27 24 8 26 22 8 1 6 27 7 26 3 3 23 16 24 6 24 9 6 10 9 22 19 17 12 3 25 8 6 12 16 21 2 11 24 28 2 8 4 4 10 21 11 20 18 4 25 7 6 26 3 26 27 14
